results/x-long/X-n129-k18.vrp_seed-39.out
28948	1112
