results/x-long/X-n129-k18.vrp_seed-39.vrp.sol
Route #1: 15 66 89 103 75 91
Route #2: 53 70 14 99 42 69 97 31 125 24
Route #3: 16 12 96 95 116 92 49 73 114 32
Route #4: 80 68 98 4 111 94 121 87
Route #5: 119 5 106 122 115 117 74
Route #6: 78 50 52 27 113 88 86
Route #7: 3
Route #8: 128 81 36 29 45
Route #9: 64 18 59 23 1 44 90
Route #10: 93 39 25 84 43 30 67
Route #11: 102 112 72 100 108 26 123
Route #12: 37 8 120 51 109 83
Route #13: 71 104 10 79 76 105 65 107
Route #14: 54 22 46 33 21 34 2 48 6 19
Route #15: 82 124 7 9 63 20
Route #16: 126 11 85 61 41 55 40 58 101 17 110
Route #17: 38 118 28 127 47
Route #18: 62 56 13 57 35 77 60
Cost 28948.000000